p tw 65 121
5 19
5 18
5 6
5 20
2 17
2 10
2 3
4 62
4 17
4 19
4 6
10 14
10 20
56 57
42 56
24 39
24 34
24 36
24 40
24 35
37 38
25 30
25 36
52 54
14 16
46 47
46 64
46 56
46 55
57 59
29 39
29 65
29 33
61 65
61 64
1 13
1 16
1 11
6 12
6 19
21 38
21 35
21 23
21 63
33 36
28 30
38 62
9 17
53 56
53 57
53 54
53 62
13 65
13 18
13 16
41 61
41 52
41 58
41 43
41 42
41 57
45 48
45 52
64 65
17 61
17 19
32 40
22 29
22 32
22 36
44 58
44 57
44 49
27 31
54 59
54 63
49 60
7 20
7 17
3 13
3 6
3 12
48 60
48 65
48 59
48 51
63 65
63 64
31 32
31 35
31 40
11 14
11 12
11 13
43 59
43 58
43 54
40 64
26 39
26 37
26 35
55 57
23 37
23 32
23 61
23 40
23 25
23 38
23 30
8 12
8 13
8 64
30 38
51 53
51 54
19 63
47 57
47 50
15 19
62 65
62 64
